# Solution for model GasLib-40
# Objective value = 1.0269861656784737e+01
loadshed[innode_1] 0
loadshed[innode_2] 0
loadshed[innode_3] 0
loadshed[innode_4] 0
loadshed[innode_5] 0
loadshed[innode_6] 0
loadshed[innode_7] 0
loadshed[innode_8] 0
loadshed[source_1] -2.3943128383090317e-01
loadshed[source_2] -6.6921751557801779e-02
loadshed[source_3] 3.7131504191523068e-01
loadshed[sink_1] 0
loadshed[sink_2] 0
loadshed[sink_3] 0
loadshed[sink_4] 0
loadshed[sink_5] 0
loadshed[sink_6] 0
loadshed[sink_7] 0
loadshed[sink_8] 0
loadshed[sink_9] 0
loadshed[sink_10] 0
loadshed[sink_11] 0
loadshed[sink_12] 6.2796606309002212e-01
loadshed[sink_13] 0
loadshed[sink_14] 0
loadshed[sink_15] 0
loadshed[sink_16] 0
loadshed[sink_17] 0
loadshed[sink_18] 0
loadshed[sink_19] 0
loadshed[sink_20] 0
loadshed[sink_21] 0
loadshed[sink_22] 0
loadshed[sink_23] 0
loadshed[sink_24] 0
loadshed[sink_25] 0
loadshed[sink_26] 0
loadshed[sink_27] 0
loadshed[sink_28] 0
loadshed[sink_29] 0
flow[source_1,sink_3] 1.9594203594729521e+02
flow[innode_1,sink_16] 1.6354166666666970e+01
flow[innode_6,sink_13] 1.5090187008334205e+01
flow[sink_13,sink_14] -1.2639796583324632e+00
flow[sink_14,sink_10] -1.7618146324999131e+01
flow[sink_25,sink_26] 150.020301476182
flow[sink_26,sink_9] 1.3366613480951523e+02
flow[sink_9,sink_18] 1.1731196814284856e+02
flow[sink_26,sink_4] 0
flow[sink_4,sink_20] -3.3717603466151786e+01
flow[sink_18,sink_6] 1.0095780147618188e+02
flow[sink_25,innode_8] -1.6323370261395885e+02
flow[sink_6,sink_7] 5.1895301476181430e+01
flow[sink_6,sink_22] 3.2708333333333641e+01
flow[sink_7,sink_24] 3.8792638343215266e+01
flow[sink_22,sink_1] 1.6354166666666970e+01
flow[sink_24,sink_21] 22.4384716765486
flow[sink_21,sink_12] 6.08430500988193
flow[sink_7,sink_5] -3.2515035337004718e+00
flow[sink_5,sink_17] -1.9605670200367172e+01
flow[sink_17,sink_4] -1.7363436799485115e+01
flow[sink_17,sink_8] -1.8596400067548728e+01
flow[sink_3,sink_23] 16.3541666666697
flow[sink_8,sink_20] -34.9505667342154
flow[sink_25,sink_20] 8.5022336867033857e+01
flow[sink_25,sink_15] -1.0325328940425818e+02
flow[sink_15,sink_29] -6.6235404260059610e+01
flow[sink_29,sink_28] 1.6354166666667879e+01
flow[sink_29,sink_2] 6.9726218477531916e+01
flow[sink_2,sink_15] 5.3372051810865244e+01
flow[sink_29,innode_7] -1.6866995607092608e+02
flow[innode_4,sink_19] 0
flow[sink_19,innode_3] 0
flow[innode_4,innode_5] 9.9388979658331763e+01
flow[sink_27,innode_5] -9.9388979658331763e+01
flow[sink_27,sink_19] 8.3034812991665987e+01
flow[sink_10,sink_11] 3.2708333333333641e+01
flow[sink_10,innode_2] -6.6680646324999316e+01
flow[sink_10,innode_3] 0
flow[innode_6,sink_25] -1.5090187008334205e+01
flow[sink_11,innode_1] 1.6354166666666970e+01
flow[sink_19,innode_2] 6.6680646324999316e+01
flow[source_3,innode_4] 9.9388979658331763e+01
flow[source_2,innode_7] 1.6866995607092608e+02
flow[sink_3,innode_8] 1.6323370261395885e+02
pressure[innode_1] 7.4661303177240811e+01
pressure[innode_2] 7.8337352043209577e+01
pressure[innode_3] 7.8337352043209577e+01
pressure[innode_4] 81.01325
pressure[innode_5] 8.0944885018993872e+01
pressure[innode_6] 7.4060618582028169e+01
pressure[innode_7] 81.01325
pressure[innode_8] 8.0358290626399025e+01
pressure[source_1] 81.01325
pressure[source_2] 81.01325
pressure[source_3] 81.01325
pressure[sink_1] 4.6452865542065673e+01
pressure[sink_2] 7.4735745634050218e+01
pressure[sink_3] 8.0358290626399025e+01
pressure[sink_4] 5.1317873272118618e+01
pressure[sink_5] 4.9193819255732521e+01
pressure[sink_6] 4.8553943152453044e+01
pressure[sink_7] 4.7841544362861683e+01
pressure[sink_8] 5.1355990458613320e+01
pressure[sink_9] 5.5494513699951113e+01
pressure[sink_10] 7.4813004484844356e+01
pressure[sink_11] 7.4661303177240811e+01
pressure[sink_12] 1.0132499999999998e+00
pressure[sink_13] 7.3977428902855735e+01
pressure[sink_14] 7.3979690902121575e+01
pressure[sink_15] 7.4561497647898491e+01
pressure[sink_16] 7.3639653342423131e+01
pressure[sink_17] 5.0654299971805337e+01
pressure[sink_18] 5.1249817042744752e+01
pressure[sink_19] 7.8337352043209577e+01
pressure[sink_20] 5.3791553440695090e+01
pressure[sink_21] 3.1783787178262703e+00
pressure[sink_22] 4.7516634684420680e+01
pressure[sink_23] 8.0193572614739239e+01
pressure[sink_24] 3.4268639438174979e+00
pressure[sink_25] 7.4060618582028169e+01
pressure[sink_26] 6.3494776851097967e+01
pressure[sink_27] 8.0120140138917222e+01
pressure[sink_28] 76.2067071652793
pressure[sink_29] 7.6501989438896487e+01
interdiction[source_1,sink_3] 0
interdiction[innode_1,sink_16] 0
interdiction[innode_6,sink_13] 0
interdiction[sink_13,sink_14] 0
interdiction[sink_14,sink_10] 0
interdiction[sink_25,sink_26] 0
interdiction[sink_26,sink_9] 0
interdiction[sink_9,sink_18] 0
interdiction[sink_26,sink_4] 1
interdiction[sink_4,sink_20] 0
interdiction[sink_18,sink_6] 0
interdiction[sink_25,innode_8] 0
interdiction[sink_6,sink_7] 0
interdiction[sink_6,sink_22] 0
interdiction[sink_7,sink_24] 0
interdiction[sink_22,sink_1] 0
interdiction[sink_24,sink_21] 0
interdiction[sink_21,sink_12] 0
interdiction[sink_7,sink_5] 0
interdiction[sink_5,sink_17] 0
interdiction[sink_17,sink_4] 0
interdiction[sink_17,sink_8] 0
interdiction[sink_3,sink_23] 0
interdiction[sink_8,sink_20] 0
interdiction[sink_25,sink_20] 0
interdiction[sink_25,sink_15] 0
interdiction[sink_15,sink_29] 0
interdiction[sink_29,sink_28] 0
interdiction[sink_29,sink_2] 0
interdiction[sink_2,sink_15] 0
interdiction[sink_29,innode_7] 0
interdiction[innode_4,sink_19] 1
interdiction[sink_19,innode_3] 0
interdiction[innode_4,innode_5] 0
interdiction[sink_27,innode_5] 0
interdiction[sink_27,sink_19] 0
interdiction[sink_10,sink_11] 0
interdiction[sink_10,innode_2] 0
interdiction[sink_10,innode_3] 1
interdiction[innode_6,sink_25] 0
interdiction[sink_11,innode_1] 0
interdiction[sink_19,innode_2] 0
interdiction[source_3,innode_4] 0
interdiction[source_2,innode_7] 0
interdiction[sink_3,innode_8] 0
WCcheckFlow[source_1,sink_3] 39
WCcheckFlow[innode_1,sink_16] 1
WCcheckFlow[innode_6,sink_13] 13
WCcheckFlow[sink_13,sink_14] 12
WCcheckFlow[sink_14,sink_10] 11
WCcheckFlow[sink_25,sink_26] 15
WCcheckFlow[sink_26,sink_9] 14
WCcheckFlow[sink_9,sink_18] 13
WCcheckFlow[sink_26,sink_4] 0
WCcheckFlow[sink_4,sink_20] 1
WCcheckFlow[sink_18,sink_6] 12
WCcheckFlow[sink_25,innode_8] -36
WCcheckFlow[sink_6,sink_7] 9
WCcheckFlow[sink_6,sink_22] 2
WCcheckFlow[sink_7,sink_24] 3
WCcheckFlow[sink_22,sink_1] 1
WCcheckFlow[sink_24,sink_21] 2
WCcheckFlow[sink_21,sink_12] 1
WCcheckFlow[sink_7,sink_5] 5
WCcheckFlow[sink_5,sink_17] 4
WCcheckFlow[sink_17,sink_4] 2
WCcheckFlow[sink_17,sink_8] 1
WCcheckFlow[sink_3,sink_23] 1
WCcheckFlow[sink_8,sink_20] 0
WCcheckFlow[sink_25,sink_20] 0
WCcheckFlow[sink_25,sink_15] 6
WCcheckFlow[sink_15,sink_29] 5
WCcheckFlow[sink_29,sink_28] 1
WCcheckFlow[sink_29,sink_2] 1
WCcheckFlow[sink_2,sink_15] 0
WCcheckFlow[sink_29,innode_7] 2
WCcheckFlow[innode_4,sink_19] 0
WCcheckFlow[sink_19,innode_3] 1
WCcheckFlow[innode_4,innode_5] -2
WCcheckFlow[sink_27,innode_5] 3
WCcheckFlow[sink_27,sink_19] -4
WCcheckFlow[sink_10,sink_11] 3
WCcheckFlow[sink_10,innode_2] 7
WCcheckFlow[sink_10,innode_3] 0
WCcheckFlow[innode_6,sink_25] -14
WCcheckFlow[sink_11,innode_1] 2
WCcheckFlow[sink_19,innode_2] -6
WCcheckFlow[source_3,innode_4] -1
WCcheckFlow[source_2,innode_7] -1
WCcheckFlow[sink_3,innode_8] 37
